7933
9729
8905
7149
8320
8483
2796
4993
7617
9157
5043
9670
5495
3818
7825
4498
2117
7476
1866
851
4051
2793
2919
5468
3485
7743
3514
9091
8633
7519
8715
7114
2559
5964
3671
4442
3057
10195
4878
6176
3964
1796
3200
2221
3941
3715
2800
4315
3655
3135
4309
